proyfinal/src/viki/013/experimentInOfficeAgust.take6.output/f29634fa-147d-4d0a-96e6-ad6dff95a127.als.dat
{'cnf.clauses': '118081',
 'cnf.totvars': '69608',
 'conflict literals': '869',
 'conflicts': '127',
 'decisions': '7669',
 'memused.mb': '14.87',
 'outcome': 'UNSAT',
 'propagations': '154779',
 'restarts': '2',
 'solver.msecs': 28,
 'task.msecs': 75}
