proyfinal/src/viki/013/experimentInOfficeAgust.take6.output/f29634fa-147d-4d0a-96e6-ad6dff95a127.als.out
Reading from standard input... Use '--help' for help.
============================[ Problem Statistics ]=============================
|                                                                             |
|  Number of variables:         69608                                         |
|  Number of clauses:          118081                                         |
|  Parse time:                   0.02 s                                       |
|                                                                             |
============================[ Search Statistics ]==============================
| Conflicts |          ORIGINAL         |          LEARNT          | Progress |
|           |    Vars  Clauses Literals |    Limit  Clauses Lit/Cl |          |
===============================================================================
|       100 |   55837    78980   195782 |    28959       97      8 | 19.784 % |
===============================================================================
restarts              : 2
conflicts             : 127            (4430 /sec)
decisions             : 7669           (0.00 % random) (267501 /sec)
propagations          : 154779         (5398828 /sec)
conflict literals     : 869            (15.22 % deleted)
Memory used           : 14.87 MB
CPU time              : 0.028669 s

UNSATISFIABLE
